# Solution for model packing
# Objective value = 1.3858080000000000e+03
alpha[0,0] 1
alpha[0,2] 0
alpha[0,6] 0
alpha[0,8] 0
alpha[0,9] 1
alpha[1,1] 1
alpha[1,3] 1
alpha[1,7] 1
alpha[2,2] 1
alpha[2,6] 1
alpha[2,8] 1
alpha[2,9] 0
alpha[3,3] 0
alpha[3,7] 0
alpha[4,4] 1
alpha[5,5] 1
alpha[6,6] 0
alpha[6,8] 0
alpha[6,9] 0
alpha[7,7] 0
alpha[8,8] 0
alpha[8,9] 0
alpha[9,9] 0
beta[0,0] 1
beta[0,1] 0
beta[0,2] 0
beta[0,3] 0
beta[0,4] 0
beta[0,5] 0
beta[0,6] 0
beta[0,7] 0
beta[0,8] 0
beta[0,9] 0
beta[1,0] 0
beta[1,1] 1
beta[1,2] 1
beta[1,3] 0
beta[1,4] 0
beta[1,5] 0
beta[1,6] 0
beta[1,7] 0
beta[1,8] 0
beta[1,9] 0
beta[2,0] 0
beta[2,1] 0
beta[2,2] 0
beta[2,3] 0
beta[2,4] 0
beta[2,5] 0
beta[2,6] 0
beta[2,7] 0
beta[2,8] 0
beta[2,9] 0
beta[3,0] 0
beta[3,1] 0
beta[3,2] 0
beta[3,3] 0
beta[3,4] 0
beta[3,5] 0
beta[3,6] 0
beta[3,7] 0
beta[3,8] 0
beta[3,9] 0
beta[4,0] 0
beta[4,1] 0
beta[4,2] 0
beta[4,3] 0
beta[4,4] 1
beta[4,5] 1
beta[4,6] 0
beta[4,7] 0
beta[4,8] 0
beta[4,9] 0
beta[5,0] 0
beta[5,1] 0
beta[5,2] 0
beta[5,3] 0
beta[5,4] 0
beta[5,5] 0
beta[5,6] 0
beta[5,7] 0
beta[5,8] 0
beta[5,9] 0
beta[6,0] 0
beta[6,1] 0
beta[6,2] 0
beta[6,3] 0
beta[6,4] 0
beta[6,5] 0
beta[6,6] 0
beta[6,7] 0
beta[6,8] 0
beta[6,9] 0
beta[7,0] 0
beta[7,1] 0
beta[7,2] 0
beta[7,3] 0
beta[7,4] 0
beta[7,5] 0
beta[7,6] 0
beta[7,7] 0
beta[7,8] 0
beta[7,9] 0
beta[8,0] 0
beta[8,1] 0
beta[8,2] 0
beta[8,3] 0
beta[8,4] 0
beta[8,5] 0
beta[8,6] 0
beta[8,7] 0
beta[8,8] 0
beta[8,9] 0
beta[9,0] 0
beta[9,1] 0
beta[9,2] 0
beta[9,3] 0
beta[9,4] 0
beta[9,5] 0
beta[9,6] 0
beta[9,7] 0
beta[9,8] 0
beta[9,9] 0
gamma[0,0] 1
gamma[0,1] 1
gamma[0,2] 0
gamma[0,3] 0
gamma[0,4] 1
gamma[0,5] 0
gamma[0,6] 0
gamma[0,7] 0
gamma[0,8] 0
gamma[0,9] 0
gamma[1,1] 0
gamma[1,2] 0
gamma[1,3] 0
gamma[1,4] 0
gamma[1,5] 0
gamma[1,6] 0
gamma[1,7] 0
gamma[1,8] 0
gamma[1,9] 0
gamma[2,2] 0
gamma[2,3] 0
gamma[2,4] 0
gamma[2,5] 0
gamma[2,6] 0
gamma[2,7] 0
gamma[2,8] 0
gamma[2,9] 0
gamma[3,3] 0
gamma[3,4] 0
gamma[3,5] 0
gamma[3,6] 0
gamma[3,7] 0
gamma[3,8] 0
gamma[3,9] 0
gamma[4,4] 0
gamma[4,5] 0
gamma[4,6] 0
gamma[4,7] 0
gamma[4,8] 0
gamma[4,9] 0
gamma[5,5] 0
gamma[5,6] 0
gamma[5,7] 0
gamma[5,8] 0
gamma[5,9] 0
gamma[6,6] 0
gamma[6,7] 0
gamma[6,8] 0
gamma[6,9] 0
gamma[7,7] 0
gamma[7,8] 0
gamma[7,9] 0
gamma[8,8] 0
gamma[8,9] 0
gamma[9,9] 0
delta[0,1,0] 0
delta[0,2,0] 0
delta[0,2,1] 0
delta[0,3,0] 0
delta[0,3,1] 1
delta[0,3,2] 0
delta[0,4,0] 0
delta[0,4,1] 0
delta[0,4,2] 0
delta[0,4,3] 0
delta[0,5,0] 0
delta[0,5,1] 0
delta[0,5,2] 0
delta[0,5,3] 0
delta[0,5,4] 0
delta[0,6,0] 0
delta[0,6,1] 0
delta[0,6,2] 0
delta[0,6,3] 0
delta[0,6,4] 0
delta[0,6,5] 0
delta[0,7,0] 0
delta[0,7,1] 1
delta[0,7,2] 0
delta[0,7,3] 0
delta[0,7,4] 0
delta[0,7,5] 0
delta[0,7,6] 0
delta[0,8,0] 0
delta[0,8,1] 0
delta[0,8,2] 0
delta[0,8,3] 0
delta[0,8,4] 0
delta[0,8,5] 0
delta[0,8,6] 0
delta[0,8,7] 0
delta[0,9,0] 1
delta[0,9,1] 0
delta[0,9,2] 0
delta[0,9,3] 0
delta[0,9,4] 0
delta[0,9,5] 0
delta[0,9,6] 0
delta[0,9,7] 0
delta[0,9,8] 0
delta[1,2,1] 0
delta[1,3,1] 0
delta[1,3,2] 0
delta[1,4,1] 0
delta[1,4,2] 0
delta[1,4,3] 0
delta[1,5,1] 0
delta[1,5,2] 0
delta[1,5,3] 0
delta[1,5,4] 0
delta[1,6,1] 0
delta[1,6,2] 0
delta[1,6,3] 0
delta[1,6,4] 0
delta[1,6,5] 0
delta[1,7,1] 0
delta[1,7,2] 0
delta[1,7,3] 0
delta[1,7,4] 0
delta[1,7,5] 0
delta[1,7,6] 0
delta[1,8,1] 0
delta[1,8,2] 0
delta[1,8,3] 0
delta[1,8,4] 0
delta[1,8,5] 0
delta[1,8,6] 0
delta[1,8,7] 0
delta[1,9,1] 0
delta[1,9,2] 0
delta[1,9,3] 0
delta[1,9,4] 0
delta[1,9,5] 0
delta[1,9,6] 0
delta[1,9,7] 0
delta[1,9,8] 0
delta[2,3,2] 0
delta[2,4,2] 0
delta[2,4,3] 0
delta[2,5,2] 0
delta[2,5,3] 0
delta[2,5,4] 0
delta[2,6,2] 0
delta[2,6,3] 0
delta[2,6,4] 0
delta[2,6,5] 0
delta[2,7,2] 0
delta[2,7,3] 0
delta[2,7,4] 0
delta[2,7,5] 0
delta[2,7,6] 0
delta[2,8,2] 0
delta[2,8,3] 0
delta[2,8,4] 0
delta[2,8,5] 0
delta[2,8,6] 0
delta[2,8,7] 0
delta[2,9,2] 0
delta[2,9,3] 0
delta[2,9,4] 0
delta[2,9,5] 0
delta[2,9,6] 0
delta[2,9,7] 0
delta[2,9,8] 0
delta[3,4,3] 0
delta[3,5,3] 0
delta[3,5,4] 0
delta[3,6,3] 0
delta[3,6,4] 0
delta[3,6,5] 0
delta[3,7,3] 0
delta[3,7,4] 0
delta[3,7,5] 0
delta[3,7,6] 0
delta[3,8,3] 0
delta[3,8,4] 0
delta[3,8,5] 0
delta[3,8,6] 0
delta[3,8,7] 0
delta[3,9,3] 0
delta[3,9,4] 0
delta[3,9,5] 0
delta[3,9,6] 0
delta[3,9,7] 0
delta[3,9,8] 0
delta[4,5,4] 0
delta[4,6,4] 0
delta[4,6,5] 0
delta[4,7,4] 0
delta[4,7,5] 0
delta[4,7,6] 0
delta[4,8,4] 0
delta[4,8,5] 0
delta[4,8,6] 0
delta[4,8,7] 0
delta[4,9,4] 0
delta[4,9,5] 0
delta[4,9,6] 0
delta[4,9,7] 0
delta[4,9,8] 0
delta[5,6,5] 0
delta[5,7,5] 0
delta[5,7,6] 0
delta[5,8,5] 0
delta[5,8,6] 0
delta[5,8,7] 0
delta[5,9,5] 0
delta[5,9,6] 0
delta[5,9,7] 0
delta[5,9,8] 0
delta[6,7,6] 0
delta[6,8,6] 0
delta[6,8,7] 0
delta[6,9,6] 0
delta[6,9,7] 0
delta[6,9,8] 0
delta[7,8,7] 0
delta[7,9,7] 0
delta[7,9,8] 0
delta[8,9,8] 0
a[0,0,0,0] 1
a[0,1,0,0] 0
a[1,1,0,0] 0
a[0,2,0,0] 0
a[1,2,0,0] 0
a[2,2,0,0] 0
a[0,3,0,0] 0
a[1,3,0,0] 0
a[2,3,0,0] 0
a[3,3,0,0] 0
a[0,4,0,0] 0
a[1,4,0,0] 0
a[2,4,0,0] 0
a[3,4,0,0] 0
a[4,4,0,0] 0
a[0,5,0,0] 0
a[1,5,0,0] 0
a[2,5,0,0] 0
a[3,5,0,0] 0
a[4,5,0,0] 0
a[5,5,0,0] 0
a[0,6,0,0] 0
a[1,6,0,0] 0
a[2,6,0,0] 0
a[3,6,0,0] 0
a[4,6,0,0] 0
a[5,6,0,0] 0
a[6,6,0,0] 0
a[0,7,0,0] 0
a[1,7,0,0] 0
a[2,7,0,0] 0
a[3,7,0,0] 0
a[4,7,0,0] 0
a[5,7,0,0] 0
a[6,7,0,0] 0
a[7,7,0,0] 0
a[0,8,0,0] 0
a[1,8,0,0] 0
a[2,8,0,0] 0
a[3,8,0,0] 0
a[4,8,0,0] 0
a[5,8,0,0] 0
a[6,8,0,0] 0
a[7,8,0,0] 0
a[8,8,0,0] 0
a[0,9,0,0] 0
a[1,9,0,0] 0
a[2,9,0,0] 0
a[3,9,0,0] 0
a[4,9,0,0] 0
a[5,9,0,0] 0
a[6,9,0,0] 0
a[7,9,0,0] 0
a[8,9,0,0] 0
a[9,9,0,0] 0
a[0,0,0,2] 0
a[0,1,0,2] 0
a[1,1,0,2] 0
a[0,2,0,2] 0
a[1,2,0,2] 0
a[2,2,0,2] 0
a[0,3,0,2] 0
a[1,3,0,2] 0
a[2,3,0,2] 0
a[3,3,0,2] 0
a[0,4,0,2] 0
a[1,4,0,2] 0
a[2,4,0,2] 0
a[3,4,0,2] 0
a[4,4,0,2] 0
a[0,5,0,2] 0
a[1,5,0,2] 0
a[2,5,0,2] 0
a[3,5,0,2] 0
a[4,5,0,2] 0
a[5,5,0,2] 0
a[0,6,0,2] 0
a[1,6,0,2] 0
a[2,6,0,2] 0
a[3,6,0,2] 0
a[4,6,0,2] 0
a[5,6,0,2] 0
a[6,6,0,2] 0
a[0,7,0,2] 0
a[1,7,0,2] 0
a[2,7,0,2] 0
a[3,7,0,2] 0
a[4,7,0,2] 0
a[5,7,0,2] 0
a[6,7,0,2] 0
a[7,7,0,2] 0
a[0,8,0,2] 0
a[1,8,0,2] 0
a[2,8,0,2] 0
a[3,8,0,2] 0
a[4,8,0,2] 0
a[5,8,0,2] 0
a[6,8,0,2] 0
a[7,8,0,2] 0
a[8,8,0,2] 0
a[0,9,0,2] 0
a[1,9,0,2] 0
a[2,9,0,2] 0
a[3,9,0,2] 0
a[4,9,0,2] 0
a[5,9,0,2] 0
a[6,9,0,2] 0
a[7,9,0,2] 0
a[8,9,0,2] 0
a[9,9,0,2] 0
a[0,0,0,6] 0
a[0,1,0,6] 0
a[1,1,0,6] 0
a[0,2,0,6] 0
a[1,2,0,6] 0
a[2,2,0,6] 0
a[0,3,0,6] 0
a[1,3,0,6] 0
a[2,3,0,6] 0
a[3,3,0,6] 0
a[0,4,0,6] 0
a[1,4,0,6] 0
a[2,4,0,6] 0
a[3,4,0,6] 0
a[4,4,0,6] 0
a[0,5,0,6] 0
a[1,5,0,6] 0
a[2,5,0,6] 0
a[3,5,0,6] 0
a[4,5,0,6] 0
a[5,5,0,6] 0
a[0,6,0,6] 0
a[1,6,0,6] 0
a[2,6,0,6] 0
a[3,6,0,6] 0
a[4,6,0,6] 0
a[5,6,0,6] 0
a[6,6,0,6] 0
a[0,7,0,6] 0
a[1,7,0,6] 0
a[2,7,0,6] 0
a[3,7,0,6] 0
a[4,7,0,6] 0
a[5,7,0,6] 0
a[6,7,0,6] 0
a[7,7,0,6] 0
a[0,8,0,6] 0
a[1,8,0,6] 0
a[2,8,0,6] 0
a[3,8,0,6] 0
a[4,8,0,6] 0
a[5,8,0,6] 0
a[6,8,0,6] 0
a[7,8,0,6] 0
a[8,8,0,6] 0
a[0,9,0,6] 0
a[1,9,0,6] 0
a[2,9,0,6] 0
a[3,9,0,6] 0
a[4,9,0,6] 0
a[5,9,0,6] 0
a[6,9,0,6] 0
a[7,9,0,6] 0
a[8,9,0,6] 0
a[9,9,0,6] 0
a[0,0,0,8] 0
a[0,1,0,8] 0
a[1,1,0,8] 0
a[0,2,0,8] 0
a[1,2,0,8] 0
a[2,2,0,8] 0
a[0,3,0,8] 0
a[1,3,0,8] 0
a[2,3,0,8] 0
a[3,3,0,8] 0
a[0,4,0,8] 0
a[1,4,0,8] 0
a[2,4,0,8] 0
a[3,4,0,8] 0
a[4,4,0,8] 0
a[0,5,0,8] 0
a[1,5,0,8] 0
a[2,5,0,8] 0
a[3,5,0,8] 0
a[4,5,0,8] 0
a[5,5,0,8] 0
a[0,6,0,8] 0
a[1,6,0,8] 0
a[2,6,0,8] 0
a[3,6,0,8] 0
a[4,6,0,8] 0
a[5,6,0,8] 0
a[6,6,0,8] 0
a[0,7,0,8] 0
a[1,7,0,8] 0
a[2,7,0,8] 0
a[3,7,0,8] 0
a[4,7,0,8] 0
a[5,7,0,8] 0
a[6,7,0,8] 0
a[7,7,0,8] 0
a[0,8,0,8] 0
a[1,8,0,8] 0
a[2,8,0,8] 0
a[3,8,0,8] 0
a[4,8,0,8] 0
a[5,8,0,8] 0
a[6,8,0,8] 0
a[7,8,0,8] 0
a[8,8,0,8] 0
a[0,9,0,8] 0
a[1,9,0,8] 0
a[2,9,0,8] 0
a[3,9,0,8] 0
a[4,9,0,8] 0
a[5,9,0,8] 0
a[6,9,0,8] 0
a[7,9,0,8] 0
a[8,9,0,8] 0
a[9,9,0,8] 0
a[0,0,0,9] 1
a[0,1,0,9] 0
a[1,1,0,9] 0
a[0,2,0,9] 0
a[1,2,0,9] 0
a[2,2,0,9] 0
a[0,3,0,9] 0
a[1,3,0,9] 0
a[2,3,0,9] 0
a[3,3,0,9] 0
a[0,4,0,9] 0
a[1,4,0,9] 0
a[2,4,0,9] 0
a[3,4,0,9] 0
a[4,4,0,9] 0
a[0,5,0,9] 0
a[1,5,0,9] 0
a[2,5,0,9] 0
a[3,5,0,9] 0
a[4,5,0,9] 0
a[5,5,0,9] 0
a[0,6,0,9] 0
a[1,6,0,9] 0
a[2,6,0,9] 0
a[3,6,0,9] 0
a[4,6,0,9] 0
a[5,6,0,9] 0
a[6,6,0,9] 0
a[0,7,0,9] 0
a[1,7,0,9] 0
a[2,7,0,9] 0
a[3,7,0,9] 0
a[4,7,0,9] 0
a[5,7,0,9] 0
a[6,7,0,9] 0
a[7,7,0,9] 0
a[0,8,0,9] 0
a[1,8,0,9] 0
a[2,8,0,9] 0
a[3,8,0,9] 0
a[4,8,0,9] 0
a[5,8,0,9] 0
a[6,8,0,9] 0
a[7,8,0,9] 0
a[8,8,0,9] 0
a[0,9,0,9] 0
a[1,9,0,9] 0
a[2,9,0,9] 0
a[3,9,0,9] 0
a[4,9,0,9] 0
a[5,9,0,9] 0
a[6,9,0,9] 0
a[7,9,0,9] 0
a[8,9,0,9] 0
a[9,9,0,9] 0
a[0,0,1,1] 0
a[0,1,1,1] 1
a[1,1,1,1] 0
a[0,2,1,1] 0
a[1,2,1,1] 0
a[2,2,1,1] 0
a[0,3,1,1] 0
a[1,3,1,1] 0
a[2,3,1,1] 0
a[3,3,1,1] 0
a[0,4,1,1] 0
a[1,4,1,1] 0
a[2,4,1,1] 0
a[3,4,1,1] 0
a[4,4,1,1] 0
a[0,5,1,1] 0
a[1,5,1,1] 0
a[2,5,1,1] 0
a[3,5,1,1] 0
a[4,5,1,1] 0
a[5,5,1,1] 0
a[0,6,1,1] 0
a[1,6,1,1] 0
a[2,6,1,1] 0
a[3,6,1,1] 0
a[4,6,1,1] 0
a[5,6,1,1] 0
a[6,6,1,1] 0
a[0,7,1,1] 0
a[1,7,1,1] 0
a[2,7,1,1] 0
a[3,7,1,1] 0
a[4,7,1,1] 0
a[5,7,1,1] 0
a[6,7,1,1] 0
a[7,7,1,1] 0
a[0,8,1,1] 0
a[1,8,1,1] 0
a[2,8,1,1] 0
a[3,8,1,1] 0
a[4,8,1,1] 0
a[5,8,1,1] 0
a[6,8,1,1] 0
a[7,8,1,1] 0
a[8,8,1,1] 0
a[0,9,1,1] 0
a[1,9,1,1] 0
a[2,9,1,1] 0
a[3,9,1,1] 0
a[4,9,1,1] 0
a[5,9,1,1] 0
a[6,9,1,1] 0
a[7,9,1,1] 0
a[8,9,1,1] 0
a[9,9,1,1] 0
a[0,0,1,3] 0
a[0,1,1,3] 1
a[1,1,1,3] 0
a[0,2,1,3] 0
a[1,2,1,3] 0
a[2,2,1,3] 0
a[0,3,1,3] 0
a[1,3,1,3] 0
a[2,3,1,3] 0
a[3,3,1,3] 0
a[0,4,1,3] 0
a[1,4,1,3] 0
a[2,4,1,3] 0
a[3,4,1,3] 0
a[4,4,1,3] 0
a[0,5,1,3] 0
a[1,5,1,3] 0
a[2,5,1,3] 0
a[3,5,1,3] 0
a[4,5,1,3] 0
a[5,5,1,3] 0
a[0,6,1,3] 0
a[1,6,1,3] 0
a[2,6,1,3] 0
a[3,6,1,3] 0
a[4,6,1,3] 0
a[5,6,1,3] 0
a[6,6,1,3] 0
a[0,7,1,3] 0
a[1,7,1,3] 0
a[2,7,1,3] 0
a[3,7,1,3] 0
a[4,7,1,3] 0
a[5,7,1,3] 0
a[6,7,1,3] 0
a[7,7,1,3] 0
a[0,8,1,3] 0
a[1,8,1,3] 0
a[2,8,1,3] 0
a[3,8,1,3] 0
a[4,8,1,3] 0
a[5,8,1,3] 0
a[6,8,1,3] 0
a[7,8,1,3] 0
a[8,8,1,3] 0
a[0,9,1,3] 0
a[1,9,1,3] 0
a[2,9,1,3] 0
a[3,9,1,3] 0
a[4,9,1,3] 0
a[5,9,1,3] 0
a[6,9,1,3] 0
a[7,9,1,3] 0
a[8,9,1,3] 0
a[9,9,1,3] 0
a[0,0,1,7] 0
a[0,1,1,7] 1
a[1,1,1,7] 0
a[0,2,1,7] 0
a[1,2,1,7] 0
a[2,2,1,7] 0
a[0,3,1,7] 0
a[1,3,1,7] 0
a[2,3,1,7] 0
a[3,3,1,7] 0
a[0,4,1,7] 0
a[1,4,1,7] 0
a[2,4,1,7] 0
a[3,4,1,7] 0
a[4,4,1,7] 0
a[0,5,1,7] 0
a[1,5,1,7] 0
a[2,5,1,7] 0
a[3,5,1,7] 0
a[4,5,1,7] 0
a[5,5,1,7] 0
a[0,6,1,7] 0
a[1,6,1,7] 0
a[2,6,1,7] 0
a[3,6,1,7] 0
a[4,6,1,7] 0
a[5,6,1,7] 0
a[6,6,1,7] 0
a[0,7,1,7] 0
a[1,7,1,7] 0
a[2,7,1,7] 0
a[3,7,1,7] 0
a[4,7,1,7] 0
a[5,7,1,7] 0
a[6,7,1,7] 0
a[7,7,1,7] 0
a[0,8,1,7] 0
a[1,8,1,7] 0
a[2,8,1,7] 0
a[3,8,1,7] 0
a[4,8,1,7] 0
a[5,8,1,7] 0
a[6,8,1,7] 0
a[7,8,1,7] 0
a[8,8,1,7] 0
a[0,9,1,7] 0
a[1,9,1,7] 0
a[2,9,1,7] 0
a[3,9,1,7] 0
a[4,9,1,7] 0
a[5,9,1,7] 0
a[6,9,1,7] 0
a[7,9,1,7] 0
a[8,9,1,7] 0
a[9,9,1,7] 0
a[0,0,2,2] 0
a[0,1,2,2] 1
a[1,1,2,2] 0
a[0,2,2,2] 0
a[1,2,2,2] 0
a[2,2,2,2] 0
a[0,3,2,2] 0
a[1,3,2,2] 0
a[2,3,2,2] 0
a[3,3,2,2] 0
a[0,4,2,2] 0
a[1,4,2,2] 0
a[2,4,2,2] 0
a[3,4,2,2] 0
a[4,4,2,2] 0
a[0,5,2,2] 0
a[1,5,2,2] 0
a[2,5,2,2] 0
a[3,5,2,2] 0
a[4,5,2,2] 0
a[5,5,2,2] 0
a[0,6,2,2] 0
a[1,6,2,2] 0
a[2,6,2,2] 0
a[3,6,2,2] 0
a[4,6,2,2] 0
a[5,6,2,2] 0
a[6,6,2,2] 0
a[0,7,2,2] 0
a[1,7,2,2] 0
a[2,7,2,2] 0
a[3,7,2,2] 0
a[4,7,2,2] 0
a[5,7,2,2] 0
a[6,7,2,2] 0
a[7,7,2,2] 0
a[0,8,2,2] 0
a[1,8,2,2] 0
a[2,8,2,2] 0
a[3,8,2,2] 0
a[4,8,2,2] 0
a[5,8,2,2] 0
a[6,8,2,2] 0
a[7,8,2,2] 0
a[8,8,2,2] 0
a[0,9,2,2] 0
a[1,9,2,2] 0
a[2,9,2,2] 0
a[3,9,2,2] 0
a[4,9,2,2] 0
a[5,9,2,2] 0
a[6,9,2,2] 0
a[7,9,2,2] 0
a[8,9,2,2] 0
a[9,9,2,2] 0
a[0,0,2,6] 0
a[0,1,2,6] 1
a[1,1,2,6] 0
a[0,2,2,6] 0
a[1,2,2,6] 0
a[2,2,2,6] 0
a[0,3,2,6] 0
a[1,3,2,6] 0
a[2,3,2,6] 0
a[3,3,2,6] 0
a[0,4,2,6] 0
a[1,4,2,6] 0
a[2,4,2,6] 0
a[3,4,2,6] 0
a[4,4,2,6] 0
a[0,5,2,6] 0
a[1,5,2,6] 0
a[2,5,2,6] 0
a[3,5,2,6] 0
a[4,5,2,6] 0
a[5,5,2,6] 0
a[0,6,2,6] 0
a[1,6,2,6] 0
a[2,6,2,6] 0
a[3,6,2,6] 0
a[4,6,2,6] 0
a[5,6,2,6] 0
a[6,6,2,6] 0
a[0,7,2,6] 0
a[1,7,2,6] 0
a[2,7,2,6] 0
a[3,7,2,6] 0
a[4,7,2,6] 0
a[5,7,2,6] 0
a[6,7,2,6] 0
a[7,7,2,6] 0
a[0,8,2,6] 0
a[1,8,2,6] 0
a[2,8,2,6] 0
a[3,8,2,6] 0
a[4,8,2,6] 0
a[5,8,2,6] 0
a[6,8,2,6] 0
a[7,8,2,6] 0
a[8,8,2,6] 0
a[0,9,2,6] 0
a[1,9,2,6] 0
a[2,9,2,6] 0
a[3,9,2,6] 0
a[4,9,2,6] 0
a[5,9,2,6] 0
a[6,9,2,6] 0
a[7,9,2,6] 0
a[8,9,2,6] 0
a[9,9,2,6] 0
a[0,0,2,8] 0
a[0,1,2,8] 1
a[1,1,2,8] 0
a[0,2,2,8] 0
a[1,2,2,8] 0
a[2,2,2,8] 0
a[0,3,2,8] 0
a[1,3,2,8] 0
a[2,3,2,8] 0
a[3,3,2,8] 0
a[0,4,2,8] 0
a[1,4,2,8] 0
a[2,4,2,8] 0
a[3,4,2,8] 0
a[4,4,2,8] 0
a[0,5,2,8] 0
a[1,5,2,8] 0
a[2,5,2,8] 0
a[3,5,2,8] 0
a[4,5,2,8] 0
a[5,5,2,8] 0
a[0,6,2,8] 0
a[1,6,2,8] 0
a[2,6,2,8] 0
a[3,6,2,8] 0
a[4,6,2,8] 0
a[5,6,2,8] 0
a[6,6,2,8] 0
a[0,7,2,8] 0
a[1,7,2,8] 0
a[2,7,2,8] 0
a[3,7,2,8] 0
a[4,7,2,8] 0
a[5,7,2,8] 0
a[6,7,2,8] 0
a[7,7,2,8] 0
a[0,8,2,8] 0
a[1,8,2,8] 0
a[2,8,2,8] 0
a[3,8,2,8] 0
a[4,8,2,8] 0
a[5,8,2,8] 0
a[6,8,2,8] 0
a[7,8,2,8] 0
a[8,8,2,8] 0
a[0,9,2,8] 0
a[1,9,2,8] 0
a[2,9,2,8] 0
a[3,9,2,8] 0
a[4,9,2,8] 0
a[5,9,2,8] 0
a[6,9,2,8] 0
a[7,9,2,8] 0
a[8,9,2,8] 0
a[9,9,2,8] 0
a[0,0,2,9] 0
a[0,1,2,9] 0
a[1,1,2,9] 0
a[0,2,2,9] 0
a[1,2,2,9] 0
a[2,2,2,9] 0
a[0,3,2,9] 0
a[1,3,2,9] 0
a[2,3,2,9] 0
a[3,3,2,9] 0
a[0,4,2,9] 0
a[1,4,2,9] 0
a[2,4,2,9] 0
a[3,4,2,9] 0
a[4,4,2,9] 0
a[0,5,2,9] 0
a[1,5,2,9] 0
a[2,5,2,9] 0
a[3,5,2,9] 0
a[4,5,2,9] 0
a[5,5,2,9] 0
a[0,6,2,9] 0
a[1,6,2,9] 0
a[2,6,2,9] 0
a[3,6,2,9] 0
a[4,6,2,9] 0
a[5,6,2,9] 0
a[6,6,2,9] 0
a[0,7,2,9] 0
a[1,7,2,9] 0
a[2,7,2,9] 0
a[3,7,2,9] 0
a[4,7,2,9] 0
a[5,7,2,9] 0
a[6,7,2,9] 0
a[7,7,2,9] 0
a[0,8,2,9] 0
a[1,8,2,9] 0
a[2,8,2,9] 0
a[3,8,2,9] 0
a[4,8,2,9] 0
a[5,8,2,9] 0
a[6,8,2,9] 0
a[7,8,2,9] 0
a[8,8,2,9] 0
a[0,9,2,9] 0
a[1,9,2,9] 0
a[2,9,2,9] 0
a[3,9,2,9] 0
a[4,9,2,9] 0
a[5,9,2,9] 0
a[6,9,2,9] 0
a[7,9,2,9] 0
a[8,9,2,9] 0
a[9,9,2,9] 0
a[0,0,3,3] 0
a[0,1,3,3] 0
a[1,1,3,3] 0
a[0,2,3,3] 0
a[1,2,3,3] 0
a[2,2,3,3] 0
a[0,3,3,3] 0
a[1,3,3,3] 0
a[2,3,3,3] 0
a[3,3,3,3] 0
a[0,4,3,3] 0
a[1,4,3,3] 0
a[2,4,3,3] 0
a[3,4,3,3] 0
a[4,4,3,3] 0
a[0,5,3,3] 0
a[1,5,3,3] 0
a[2,5,3,3] 0
a[3,5,3,3] 0
a[4,5,3,3] 0
a[5,5,3,3] 0
a[0,6,3,3] 0
a[1,6,3,3] 0
a[2,6,3,3] 0
a[3,6,3,3] 0
a[4,6,3,3] 0
a[5,6,3,3] 0
a[6,6,3,3] 0
a[0,7,3,3] 0
a[1,7,3,3] 0
a[2,7,3,3] 0
a[3,7,3,3] 0
a[4,7,3,3] 0
a[5,7,3,3] 0
a[6,7,3,3] 0
a[7,7,3,3] 0
a[0,8,3,3] 0
a[1,8,3,3] 0
a[2,8,3,3] 0
a[3,8,3,3] 0
a[4,8,3,3] 0
a[5,8,3,3] 0
a[6,8,3,3] 0
a[7,8,3,3] 0
a[8,8,3,3] 0
a[0,9,3,3] 0
a[1,9,3,3] 0
a[2,9,3,3] 0
a[3,9,3,3] 0
a[4,9,3,3] 0
a[5,9,3,3] 0
a[6,9,3,3] 0
a[7,9,3,3] 0
a[8,9,3,3] 0
a[9,9,3,3] 0
a[0,0,3,7] 0
a[0,1,3,7] 0
a[1,1,3,7] 0
a[0,2,3,7] 0
a[1,2,3,7] 0
a[2,2,3,7] 0
a[0,3,3,7] 0
a[1,3,3,7] 0
a[2,3,3,7] 0
a[3,3,3,7] 0
a[0,4,3,7] 0
a[1,4,3,7] 0
a[2,4,3,7] 0
a[3,4,3,7] 0
a[4,4,3,7] 0
a[0,5,3,7] 0
a[1,5,3,7] 0
a[2,5,3,7] 0
a[3,5,3,7] 0
a[4,5,3,7] 0
a[5,5,3,7] 0
a[0,6,3,7] 0
a[1,6,3,7] 0
a[2,6,3,7] 0
a[3,6,3,7] 0
a[4,6,3,7] 0
a[5,6,3,7] 0
a[6,6,3,7] 0
a[0,7,3,7] 0
a[1,7,3,7] 0
a[2,7,3,7] 0
a[3,7,3,7] 0
a[4,7,3,7] 0
a[5,7,3,7] 0
a[6,7,3,7] 0
a[7,7,3,7] 0
a[0,8,3,7] 0
a[1,8,3,7] 0
a[2,8,3,7] 0
a[3,8,3,7] 0
a[4,8,3,7] 0
a[5,8,3,7] 0
a[6,8,3,7] 0
a[7,8,3,7] 0
a[8,8,3,7] 0
a[0,9,3,7] 0
a[1,9,3,7] 0
a[2,9,3,7] 0
a[3,9,3,7] 0
a[4,9,3,7] 0
a[5,9,3,7] 0
a[6,9,3,7] 0
a[7,9,3,7] 0
a[8,9,3,7] 0
a[9,9,3,7] 0
a[0,0,4,4] 0
a[0,1,4,4] 0
a[1,1,4,4] 0
a[0,2,4,4] 0
a[1,2,4,4] 0
a[2,2,4,4] 0
a[0,3,4,4] 0
a[1,3,4,4] 0
a[2,3,4,4] 0
a[3,3,4,4] 0
a[0,4,4,4] 1
a[1,4,4,4] 0
a[2,4,4,4] 0
a[3,4,4,4] 0
a[4,4,4,4] 0
a[0,5,4,4] 0
a[1,5,4,4] 0
a[2,5,4,4] 0
a[3,5,4,4] 0
a[4,5,4,4] 0
a[5,5,4,4] 0
a[0,6,4,4] 0
a[1,6,4,4] 0
a[2,6,4,4] 0
a[3,6,4,4] 0
a[4,6,4,4] 0
a[5,6,4,4] 0
a[6,6,4,4] 0
a[0,7,4,4] 0
a[1,7,4,4] 0
a[2,7,4,4] 0
a[3,7,4,4] 0
a[4,7,4,4] 0
a[5,7,4,4] 0
a[6,7,4,4] 0
a[7,7,4,4] 0
a[0,8,4,4] 0
a[1,8,4,4] 0
a[2,8,4,4] 0
a[3,8,4,4] 0
a[4,8,4,4] 0
a[5,8,4,4] 0
a[6,8,4,4] 0
a[7,8,4,4] 0
a[8,8,4,4] 0
a[0,9,4,4] 0
a[1,9,4,4] 0
a[2,9,4,4] 0
a[3,9,4,4] 0
a[4,9,4,4] 0
a[5,9,4,4] 0
a[6,9,4,4] 0
a[7,9,4,4] 0
a[8,9,4,4] 0
a[9,9,4,4] 0
a[0,0,5,5] 0
a[0,1,5,5] 0
a[1,1,5,5] 0
a[0,2,5,5] 0
a[1,2,5,5] 0
a[2,2,5,5] 0
a[0,3,5,5] 0
a[1,3,5,5] 0
a[2,3,5,5] 0
a[3,3,5,5] 0
a[0,4,5,5] 1
a[1,4,5,5] 0
a[2,4,5,5] 0
a[3,4,5,5] 0
a[4,4,5,5] 0
a[0,5,5,5] 0
a[1,5,5,5] 0
a[2,5,5,5] 0
a[3,5,5,5] 0
a[4,5,5,5] 0
a[5,5,5,5] 0
a[0,6,5,5] 0
a[1,6,5,5] 0
a[2,6,5,5] 0
a[3,6,5,5] 0
a[4,6,5,5] 0
a[5,6,5,5] 0
a[6,6,5,5] 0
a[0,7,5,5] 0
a[1,7,5,5] 0
a[2,7,5,5] 0
a[3,7,5,5] 0
a[4,7,5,5] 0
a[5,7,5,5] 0
a[6,7,5,5] 0
a[7,7,5,5] 0
a[0,8,5,5] 0
a[1,8,5,5] 0
a[2,8,5,5] 0
a[3,8,5,5] 0
a[4,8,5,5] 0
a[5,8,5,5] 0
a[6,8,5,5] 0
a[7,8,5,5] 0
a[8,8,5,5] 0
a[0,9,5,5] 0
a[1,9,5,5] 0
a[2,9,5,5] 0
a[3,9,5,5] 0
a[4,9,5,5] 0
a[5,9,5,5] 0
a[6,9,5,5] 0
a[7,9,5,5] 0
a[8,9,5,5] 0
a[9,9,5,5] 0
a[0,0,6,6] 0
a[0,1,6,6] 0
a[1,1,6,6] 0
a[0,2,6,6] 0
a[1,2,6,6] 0
a[2,2,6,6] 0
a[0,3,6,6] 0
a[1,3,6,6] 0
a[2,3,6,6] 0
a[3,3,6,6] 0
a[0,4,6,6] 0
a[1,4,6,6] 0
a[2,4,6,6] 0
a[3,4,6,6] 0
a[4,4,6,6] 0
a[0,5,6,6] 0
a[1,5,6,6] 0
a[2,5,6,6] 0
a[3,5,6,6] 0
a[4,5,6,6] 0
a[5,5,6,6] 0
a[0,6,6,6] 0
a[1,6,6,6] 0
a[2,6,6,6] 0
a[3,6,6,6] 0
a[4,6,6,6] 0
a[5,6,6,6] 0
a[6,6,6,6] 0
a[0,7,6,6] 0
a[1,7,6,6] 0
a[2,7,6,6] 0
a[3,7,6,6] 0
a[4,7,6,6] 0
a[5,7,6,6] 0
a[6,7,6,6] 0
a[7,7,6,6] 0
a[0,8,6,6] 0
a[1,8,6,6] 0
a[2,8,6,6] 0
a[3,8,6,6] 0
a[4,8,6,6] 0
a[5,8,6,6] 0
a[6,8,6,6] 0
a[7,8,6,6] 0
a[8,8,6,6] 0
a[0,9,6,6] 0
a[1,9,6,6] 0
a[2,9,6,6] 0
a[3,9,6,6] 0
a[4,9,6,6] 0
a[5,9,6,6] 0
a[6,9,6,6] 0
a[7,9,6,6] 0
a[8,9,6,6] 0
a[9,9,6,6] 0
a[0,0,6,8] 0
a[0,1,6,8] 0
a[1,1,6,8] 0
a[0,2,6,8] 0
a[1,2,6,8] 0
a[2,2,6,8] 0
a[0,3,6,8] 0
a[1,3,6,8] 0
a[2,3,6,8] 0
a[3,3,6,8] 0
a[0,4,6,8] 0
a[1,4,6,8] 0
a[2,4,6,8] 0
a[3,4,6,8] 0
a[4,4,6,8] 0
a[0,5,6,8] 0
a[1,5,6,8] 0
a[2,5,6,8] 0
a[3,5,6,8] 0
a[4,5,6,8] 0
a[5,5,6,8] 0
a[0,6,6,8] 0
a[1,6,6,8] 0
a[2,6,6,8] 0
a[3,6,6,8] 0
a[4,6,6,8] 0
a[5,6,6,8] 0
a[6,6,6,8] 0
a[0,7,6,8] 0
a[1,7,6,8] 0
a[2,7,6,8] 0
a[3,7,6,8] 0
a[4,7,6,8] 0
a[5,7,6,8] 0
a[6,7,6,8] 0
a[7,7,6,8] 0
a[0,8,6,8] 0
a[1,8,6,8] 0
a[2,8,6,8] 0
a[3,8,6,8] 0
a[4,8,6,8] 0
a[5,8,6,8] 0
a[6,8,6,8] 0
a[7,8,6,8] 0
a[8,8,6,8] 0
a[0,9,6,8] 0
a[1,9,6,8] 0
a[2,9,6,8] 0
a[3,9,6,8] 0
a[4,9,6,8] 0
a[5,9,6,8] 0
a[6,9,6,8] 0
a[7,9,6,8] 0
a[8,9,6,8] 0
a[9,9,6,8] 0
a[0,0,6,9] 0
a[0,1,6,9] 0
a[1,1,6,9] 0
a[0,2,6,9] 0
a[1,2,6,9] 0
a[2,2,6,9] 0
a[0,3,6,9] 0
a[1,3,6,9] 0
a[2,3,6,9] 0
a[3,3,6,9] 0
a[0,4,6,9] 0
a[1,4,6,9] 0
a[2,4,6,9] 0
a[3,4,6,9] 0
a[4,4,6,9] 0
a[0,5,6,9] 0
a[1,5,6,9] 0
a[2,5,6,9] 0
a[3,5,6,9] 0
a[4,5,6,9] 0
a[5,5,6,9] 0
a[0,6,6,9] 0
a[1,6,6,9] 0
a[2,6,6,9] 0
a[3,6,6,9] 0
a[4,6,6,9] 0
a[5,6,6,9] 0
a[6,6,6,9] 0
a[0,7,6,9] 0
a[1,7,6,9] 0
a[2,7,6,9] 0
a[3,7,6,9] 0
a[4,7,6,9] 0
a[5,7,6,9] 0
a[6,7,6,9] 0
a[7,7,6,9] 0
a[0,8,6,9] 0
a[1,8,6,9] 0
a[2,8,6,9] 0
a[3,8,6,9] 0
a[4,8,6,9] 0
a[5,8,6,9] 0
a[6,8,6,9] 0
a[7,8,6,9] 0
a[8,8,6,9] 0
a[0,9,6,9] 0
a[1,9,6,9] 0
a[2,9,6,9] 0
a[3,9,6,9] 0
a[4,9,6,9] 0
a[5,9,6,9] 0
a[6,9,6,9] 0
a[7,9,6,9] 0
a[8,9,6,9] 0
a[9,9,6,9] 0
a[0,0,7,7] 0
a[0,1,7,7] 0
a[1,1,7,7] 0
a[0,2,7,7] 0
a[1,2,7,7] 0
a[2,2,7,7] 0
a[0,3,7,7] 0
a[1,3,7,7] 0
a[2,3,7,7] 0
a[3,3,7,7] 0
a[0,4,7,7] 0
a[1,4,7,7] 0
a[2,4,7,7] 0
a[3,4,7,7] 0
a[4,4,7,7] 0
a[0,5,7,7] 0
a[1,5,7,7] 0
a[2,5,7,7] 0
a[3,5,7,7] 0
a[4,5,7,7] 0
a[5,5,7,7] 0
a[0,6,7,7] 0
a[1,6,7,7] 0
a[2,6,7,7] 0
a[3,6,7,7] 0
a[4,6,7,7] 0
a[5,6,7,7] 0
a[6,6,7,7] 0
a[0,7,7,7] 0
a[1,7,7,7] 0
a[2,7,7,7] 0
a[3,7,7,7] 0
a[4,7,7,7] 0
a[5,7,7,7] 0
a[6,7,7,7] 0
a[7,7,7,7] 0
a[0,8,7,7] 0
a[1,8,7,7] 0
a[2,8,7,7] 0
a[3,8,7,7] 0
a[4,8,7,7] 0
a[5,8,7,7] 0
a[6,8,7,7] 0
a[7,8,7,7] 0
a[8,8,7,7] 0
a[0,9,7,7] 0
a[1,9,7,7] 0
a[2,9,7,7] 0
a[3,9,7,7] 0
a[4,9,7,7] 0
a[5,9,7,7] 0
a[6,9,7,7] 0
a[7,9,7,7] 0
a[8,9,7,7] 0
a[9,9,7,7] 0
a[0,0,8,8] 0
a[0,1,8,8] 0
a[1,1,8,8] 0
a[0,2,8,8] 0
a[1,2,8,8] 0
a[2,2,8,8] 0
a[0,3,8,8] 0
a[1,3,8,8] 0
a[2,3,8,8] 0
a[3,3,8,8] 0
a[0,4,8,8] 0
a[1,4,8,8] 0
a[2,4,8,8] 0
a[3,4,8,8] 0
a[4,4,8,8] 0
a[0,5,8,8] 0
a[1,5,8,8] 0
a[2,5,8,8] 0
a[3,5,8,8] 0
a[4,5,8,8] 0
a[5,5,8,8] 0
a[0,6,8,8] 0
a[1,6,8,8] 0
a[2,6,8,8] 0
a[3,6,8,8] 0
a[4,6,8,8] 0
a[5,6,8,8] 0
a[6,6,8,8] 0
a[0,7,8,8] 0
a[1,7,8,8] 0
a[2,7,8,8] 0
a[3,7,8,8] 0
a[4,7,8,8] 0
a[5,7,8,8] 0
a[6,7,8,8] 0
a[7,7,8,8] 0
a[0,8,8,8] 0
a[1,8,8,8] 0
a[2,8,8,8] 0
a[3,8,8,8] 0
a[4,8,8,8] 0
a[5,8,8,8] 0
a[6,8,8,8] 0
a[7,8,8,8] 0
a[8,8,8,8] 0
a[0,9,8,8] 0
a[1,9,8,8] 0
a[2,9,8,8] 0
a[3,9,8,8] 0
a[4,9,8,8] 0
a[5,9,8,8] 0
a[6,9,8,8] 0
a[7,9,8,8] 0
a[8,9,8,8] 0
a[9,9,8,8] 0
a[0,0,8,9] 0
a[0,1,8,9] 0
a[1,1,8,9] 0
a[0,2,8,9] 0
a[1,2,8,9] 0
a[2,2,8,9] 0
a[0,3,8,9] 0
a[1,3,8,9] 0
a[2,3,8,9] 0
a[3,3,8,9] 0
a[0,4,8,9] 0
a[1,4,8,9] 0
a[2,4,8,9] 0
a[3,4,8,9] 0
a[4,4,8,9] 0
a[0,5,8,9] 0
a[1,5,8,9] 0
a[2,5,8,9] 0
a[3,5,8,9] 0
a[4,5,8,9] 0
a[5,5,8,9] 0
a[0,6,8,9] 0
a[1,6,8,9] 0
a[2,6,8,9] 0
a[3,6,8,9] 0
a[4,6,8,9] 0
a[5,6,8,9] 0
a[6,6,8,9] 0
a[0,7,8,9] 0
a[1,7,8,9] 0
a[2,7,8,9] 0
a[3,7,8,9] 0
a[4,7,8,9] 0
a[5,7,8,9] 0
a[6,7,8,9] 0
a[7,7,8,9] 0
a[0,8,8,9] 0
a[1,8,8,9] 0
a[2,8,8,9] 0
a[3,8,8,9] 0
a[4,8,8,9] 0
a[5,8,8,9] 0
a[6,8,8,9] 0
a[7,8,8,9] 0
a[8,8,8,9] 0
a[0,9,8,9] 0
a[1,9,8,9] 0
a[2,9,8,9] 0
a[3,9,8,9] 0
a[4,9,8,9] 0
a[5,9,8,9] 0
a[6,9,8,9] 0
a[7,9,8,9] 0
a[8,9,8,9] 0
a[9,9,8,9] 0
a[0,0,9,9] 0
a[0,1,9,9] 0
a[1,1,9,9] 0
a[0,2,9,9] 0
a[1,2,9,9] 0
a[2,2,9,9] 0
a[0,3,9,9] 0
a[1,3,9,9] 0
a[2,3,9,9] 0
a[3,3,9,9] 0
a[0,4,9,9] 0
a[1,4,9,9] 0
a[2,4,9,9] 0
a[3,4,9,9] 0
a[4,4,9,9] 0
a[0,5,9,9] 0
a[1,5,9,9] 0
a[2,5,9,9] 0
a[3,5,9,9] 0
a[4,5,9,9] 0
a[5,5,9,9] 0
a[0,6,9,9] 0
a[1,6,9,9] 0
a[2,6,9,9] 0
a[3,6,9,9] 0
a[4,6,9,9] 0
a[5,6,9,9] 0
a[6,6,9,9] 0
a[0,7,9,9] 0
a[1,7,9,9] 0
a[2,7,9,9] 0
a[3,7,9,9] 0
a[4,7,9,9] 0
a[5,7,9,9] 0
a[6,7,9,9] 0
a[7,7,9,9] 0
a[0,8,9,9] 0
a[1,8,9,9] 0
a[2,8,9,9] 0
a[3,8,9,9] 0
a[4,8,9,9] 0
a[5,8,9,9] 0
a[6,8,9,9] 0
a[7,8,9,9] 0
a[8,8,9,9] 0
a[0,9,9,9] 0
a[1,9,9,9] 0
a[2,9,9,9] 0
a[3,9,9,9] 0
a[4,9,9,9] 0
a[5,9,9,9] 0
a[6,9,9,9] 0
a[7,9,9,9] 0
a[8,9,9,9] 0
a[9,9,9,9] 0
b[0,0,0] 0
b[0,0,1] 1
b[0,0,2] 0
b[0,1,0] 0
b[0,1,1] 0
b[0,1,2] 0
b[0,2,0] 0
b[0,2,1] 0
b[0,2,2] 0
b[0,3,0] 0
b[0,3,1] 0
b[0,3,2] 0
b[0,4,0] 0
b[0,4,1] 0
b[0,4,2] 0
b[0,5,0] 0
b[0,5,1] 0
b[0,5,2] 0
b[0,6,0] 0
b[0,6,1] 0
b[0,6,2] 0
b[0,7,0] 0
b[0,7,1] 0
b[0,7,2] 0
b[0,8,0] 0
b[0,8,1] 0
b[0,8,2] 0
b[0,9,0] 0
b[0,9,1] 0
b[0,9,2] 0
b[2,0,0] 0
b[2,0,1] 1
b[2,0,2] 0
b[2,1,0] 0
b[2,1,1] 0
b[2,1,2] 0
b[2,2,0] 0
b[2,2,1] 0
b[2,2,2] 0
b[2,3,0] 0
b[2,3,1] 0
b[2,3,2] 0
b[2,4,0] 0
b[2,4,1] 0
b[2,4,2] 0
b[2,5,0] 0
b[2,5,1] 0
b[2,5,2] 0
b[2,6,0] 0
b[2,6,1] 0
b[2,6,2] 0
b[2,7,0] 0
b[2,7,1] 0
b[2,7,2] 0
b[2,8,0] 0
b[2,8,1] 0
b[2,8,2] 0
b[2,9,0] 0
b[2,9,1] 0
b[2,9,2] 0
b[6,0,0] 0
b[6,0,1] 1
b[6,0,2] 0
b[6,1,0] 0
b[6,1,1] 0
b[6,1,2] 0
b[6,2,0] 0
b[6,2,1] 0
b[6,2,2] 0
b[6,3,0] 0
b[6,3,1] 0
b[6,3,2] 0
b[6,4,0] 0
b[6,4,1] 0
b[6,4,2] 0
b[6,5,0] 0
b[6,5,1] 0
b[6,5,2] 0
b[6,6,0] 0
b[6,6,1] 0
b[6,6,2] 0
b[6,7,0] 0
b[6,7,1] 0
b[6,7,2] 0
b[6,8,0] 0
b[6,8,1] 0
b[6,8,2] 0
b[6,9,0] 0
b[6,9,1] 0
b[6,9,2] 0
b[8,0,0] 0
b[8,0,1] 1
b[8,0,2] 0
b[8,1,0] 0
b[8,1,1] 0
b[8,1,2] 0
b[8,2,0] 0
b[8,2,1] 0
b[8,2,2] 0
b[8,3,0] 0
b[8,3,1] 0
b[8,3,2] 0
b[8,4,0] 0
b[8,4,1] 0
b[8,4,2] 0
b[8,5,0] 0
b[8,5,1] 0
b[8,5,2] 0
b[8,6,0] 0
b[8,6,1] 0
b[8,6,2] 0
b[8,7,0] 0
b[8,7,1] 0
b[8,7,2] 0
b[8,8,0] 0
b[8,8,1] 0
b[8,8,2] 0
b[8,9,0] 0
b[8,9,1] 0
b[8,9,2] 0
b[9,0,0] 0
b[9,0,1] 1
b[9,0,2] 0
b[9,1,0] 0
b[9,1,1] 0
b[9,1,2] 0
b[9,2,0] 0
b[9,2,1] 0
b[9,2,2] 0
b[9,3,0] 0
b[9,3,1] 0
b[9,3,2] 0
b[9,4,0] 0
b[9,4,1] 0
b[9,4,2] 0
b[9,5,0] 0
b[9,5,1] 0
b[9,5,2] 0
b[9,6,0] 0
b[9,6,1] 0
b[9,6,2] 0
b[9,7,0] 0
b[9,7,1] 0
b[9,7,2] 0
b[9,8,0] 0
b[9,8,1] 0
b[9,8,2] 0
b[9,9,0] 0
b[9,9,1] 0
b[9,9,2] 0
b[1,0,0] 0
b[1,0,1] 1
b[1,0,2] 0
b[1,1,0] 0
b[1,1,1] 0
b[1,1,2] 0
b[1,2,0] 0
b[1,2,1] 0
b[1,2,2] 0
b[1,3,0] 0
b[1,3,1] 0
b[1,3,2] 0
b[1,4,0] 0
b[1,4,1] 0
b[1,4,2] 0
b[1,5,0] 0
b[1,5,1] 0
b[1,5,2] 0
b[1,6,0] 0
b[1,6,1] 0
b[1,6,2] 0
b[1,7,0] 0
b[1,7,1] 0
b[1,7,2] 0
b[1,8,0] 0
b[1,8,1] 0
b[1,8,2] 0
b[1,9,0] 0
b[1,9,1] 0
b[1,9,2] 0
b[3,0,0] 0
b[3,0,1] 1
b[3,0,2] 0
b[3,1,0] 0
b[3,1,1] 0
b[3,1,2] 0
b[3,2,0] 0
b[3,2,1] 0
b[3,2,2] 0
b[3,3,0] 0
b[3,3,1] 0
b[3,3,2] 0
b[3,4,0] 0
b[3,4,1] 0
b[3,4,2] 0
b[3,5,0] 0
b[3,5,1] 0
b[3,5,2] 0
b[3,6,0] 0
b[3,6,1] 0
b[3,6,2] 0
b[3,7,0] 0
b[3,7,1] 0
b[3,7,2] 0
b[3,8,0] 0
b[3,8,1] 0
b[3,8,2] 0
b[3,9,0] 0
b[3,9,1] 0
b[3,9,2] 0
b[7,0,0] 0
b[7,0,1] 1
b[7,0,2] 0
b[7,1,0] 0
b[7,1,1] 0
b[7,1,2] 0
b[7,2,0] 0
b[7,2,1] 0
b[7,2,2] 0
b[7,3,0] 0
b[7,3,1] 0
b[7,3,2] 0
b[7,4,0] 0
b[7,4,1] 0
b[7,4,2] 0
b[7,5,0] 0
b[7,5,1] 0
b[7,5,2] 0
b[7,6,0] 0
b[7,6,1] 0
b[7,6,2] 0
b[7,7,0] 0
b[7,7,1] 0
b[7,7,2] 0
b[7,8,0] 0
b[7,8,1] 0
b[7,8,2] 0
b[7,9,0] 0
b[7,9,1] 0
b[7,9,2] 0
b[4,0,0] 0
b[4,0,1] 1
b[4,0,2] 0
b[4,1,0] 0
b[4,1,1] 0
b[4,1,2] 0
b[4,2,0] 0
b[4,2,1] 0
b[4,2,2] 0
b[4,3,0] 0
b[4,3,1] 0
b[4,3,2] 0
b[4,4,0] 0
b[4,4,1] 0
b[4,4,2] 0
b[4,5,0] 0
b[4,5,1] 0
b[4,5,2] 0
b[4,6,0] 0
b[4,6,1] 0
b[4,6,2] 0
b[4,7,0] 0
b[4,7,1] 0
b[4,7,2] 0
b[4,8,0] 0
b[4,8,1] 0
b[4,8,2] 0
b[4,9,0] 0
b[4,9,1] 0
b[4,9,2] 0
b[5,0,0] 0
b[5,0,1] 1
b[5,0,2] 0
b[5,1,0] 0
b[5,1,1] 0
b[5,1,2] 0
b[5,2,0] 0
b[5,2,1] 0
b[5,2,2] 0
b[5,3,0] 0
b[5,3,1] 0
b[5,3,2] 0
b[5,4,0] 0
b[5,4,1] 0
b[5,4,2] 0
b[5,5,0] 0
b[5,5,1] 0
b[5,5,2] 0
b[5,6,0] 0
b[5,6,1] 0
b[5,6,2] 0
b[5,7,0] 0
b[5,7,1] 0
b[5,7,2] 0
b[5,8,0] 0
b[5,8,1] 0
b[5,8,2] 0
b[5,9,0] 0
b[5,9,1] 0
b[5,9,2] 0
Q[0] 20000
Q[1] 0
Q[2] 0
Q[3] 0
Q[4] 0
Q[5] 0
Q[6] 0
Q[7] 0
Q[8] 0
Q[9] 0
z[0,0] 0
z[0,1] 20000
z[0,2] 0
z[1,0] 0
z[1,1] 0
z[1,2] 0
z[2,0] 0
z[2,1] 0
z[2,2] 0
z[3,0] 0
z[3,1] 0
z[3,2] 0
z[4,0] 0
z[4,1] 0
z[4,2] 0
z[5,0] 0
z[5,1] 0
z[5,2] 0
z[6,0] 0
z[6,1] 0
z[6,2] 0
z[7,0] 0
z[7,1] 0
z[7,2] 0
z[8,0] 0
z[8,1] 0
z[8,2] 0
z[9,0] 0
z[9,1] 0
z[9,2] 0
x[0,0] 0
x[0,1] 1
x[0,2] 0
x[1,0] 0
x[1,1] 0
x[1,2] 0
x[2,0] 0
x[2,1] 0
x[2,2] 0
x[3,0] 0
x[3,1] 0
x[3,2] 0
x[4,0] 0
x[4,1] 0
x[4,2] 0
x[5,0] 0
x[5,1] 0
x[5,2] 0
x[6,0] 0
x[6,1] 0
x[6,2] 0
x[7,0] 0
x[7,1] 0
x[7,2] 0
x[8,0] 0
x[8,1] 0
x[8,2] 0
x[9,0] 0
x[9,1] 0
x[9,2] 0
tp[0] 1
tp[1] 1
tp[2] 1
tp[3] 1
tp[4] 1
tp[5] 1
tp[6] 1
tp[7] 1
tp[8] 1
tp[9] 1
tn[0] 0
tn[1] 0
tn[2] 0
tn[3] 0
tn[4] 2
tn[5] 2
tn[6] 2
tn[7] 2
tn[8] 2
tn[9] 2
